157
132
301
312
851
81
160
660
569
238
171
106
215
172
161
291
140
265
379
278
47
159
92
45
74
214
68
263
93
87
541
203
99
203
248
36
305
198
257
261
216
103
237
197
35
297
243
97
217
37
214
248
173
59
42
124
21
220
167
22
50
103
182
43
225
236
34
28
182
505
89
238
176
41
108
158
114
167
99
236
83
245
362
359
326
351
23
49
490
465
649
222
1193
280
143
167
87
